# Objective value = 1.0368829921150687e+04
I_0_0 3649
I_0_1 4.6559999639615016e+03
I_0_2 3.9889999542412097e+03
I_0_3 5401.99995424121
I_1_0 120
I_1_1 60
I_1_2 120
I_1_3 6.0000000000000171e+01
I_2_0 66
I_2_1 66
I_2_2 66
I_2_3 0
I_3_0 99
I_3_1 0
I_3_2 99
I_3_3 0
I_4_0 13
I_4_1 0
I_4_2 13
I_4_3 0
I_5_0 190
I_5_1 95
I_5_2 190
I_5_3 95
I_6_0 138
I_6_1 69
I_6_2 138
I_6_3 69
I_7_0 50
I_7_1 0
I_7_2 50
I_7_3 0
I_8_0 67
I_8_1 0
I_8_2 67
I_8_3 0
I_9_0 148
I_9_1 148
I_9_2 7.4000040624247148e+01
I_9_3 4.0624247148457471e-05
I_10_0 154
I_10_1 154
I_10_2 77
I_10_3 0
I_11_0 66
I_11_1 66
I_11_2 33
I_11_3 0
I_12_0 162
I_12_1 162
I_12_2 81
I_12_3 0
I_13_0 88
I_13_1 44
I_13_2 88
I_13_3 44
I_14_0 49
I_14_1 0
I_14_2 49
I_14_3 0
I_15_0 92
I_15_1 0
I_15_2 92
I_15_3 0
I_16_0 150
I_16_1 150
I_16_2 7.5000041173223480e+01
I_16_3 4.1173223479518128e-05
I_17_0 62
I_17_1 31
I_17_2 6.1999999999999993e+01
I_17_3 3.0999999999999993e+01
I_18_0 36
I_18_1 18
I_18_2 3.5999999999999993e+01
I_18_3 1.7999999999999993e+01
I_19_0 48
I_19_1 0
I_19_2 48
I_19_3 0
I_20_0 164
I_20_1 82
I_20_2 164
I_20_3 8.1999999999999872e+01
I_21_0 72
I_21_1 36
I_21_2 72
I_21_3 36
I_22_0 22
I_22_1 0
I_22_2 22
I_22_3 0
I_23_0 27
I_23_1 0
I_23_2 27
I_23_3 0
I_24_0 96
I_24_1 4.8000036038498493e+01
I_24_2 9.5999963961319708e+01
I_24_3 4.7999963961319708e+01
I_25_0 57
I_25_1 0
I_25_2 57
I_25_3 0
q_1_0_0 0
q_1_0_1 120
q_1_0_2 0
q_1_1_0 0
q_1_1_1 0
q_1_1_2 0
q_2_0_0 66
q_2_0_1 0
q_2_0_2 0
q_2_1_0 0
q_2_1_1 66
q_2_1_2 0
q_3_0_0 0
q_3_0_1 0
q_3_0_2 0
q_3_1_0 0
q_3_1_1 198
q_3_1_2 0
q_4_0_0 0
q_4_0_1 0
q_4_0_2 0
q_4_1_0 0
q_4_1_1 26
q_4_1_2 0
q_5_0_0 0
q_5_0_1 0
q_5_0_2 0
q_5_1_0 0
q_5_1_1 190
q_5_1_2 0
q_6_0_0 0
q_6_0_1 138
q_6_0_2 0
q_6_1_0 0
q_6_1_1 0
q_6_1_2 0
q_7_0_0 0
q_7_0_1 0
q_7_0_2 0
q_7_1_0 0
q_7_1_1 100
q_7_1_2 0
q_8_0_0 0
q_8_0_1 134
q_8_0_2 0
q_8_1_0 0
q_8_1_1 0
q_8_1_2 0
q_9_0_0 74
q_9_0_1 4.0624247138129259e-05
q_9_0_2 0
q_9_1_0 0
q_9_1_1 0
q_9_1_2 0
q_10_0_0 77
q_10_0_1 0
q_10_0_2 0
q_10_1_0 0
q_10_1_1 0
q_10_1_2 0
q_11_0_0 33
q_11_0_1 0
q_11_0_2 0
q_11_1_0 0
q_11_1_1 0
q_11_1_2 0
q_12_0_0 81
q_12_0_1 0
q_12_0_2 0
q_12_1_0 0
q_12_1_1 0
q_12_1_2 0
q_13_0_0 0
q_13_0_1 0
q_13_0_2 0
q_13_1_0 0
q_13_1_1 88
q_13_1_2 0
q_14_0_0 0
q_14_0_1 0
q_14_0_2 0
q_14_1_0 0
q_14_1_1 98
q_14_1_2 0
q_15_0_0 0
q_15_0_1 0
q_15_0_2 0
q_15_1_0 0
q_15_1_1 184
q_15_1_2 0
q_16_0_0 75
q_16_0_1 4.1173223476315910e-05
q_16_0_2 0
q_16_1_0 0
q_16_1_1 0
q_16_1_2 0
q_17_0_0 0
q_17_0_1 6.1999999999999993e+01
q_17_0_2 0
q_17_1_0 0
q_17_1_1 0
q_17_1_2 0
q_18_0_0 0
q_18_0_1 3.5999999999999993e+01
q_18_0_2 0
q_18_1_0 0
q_18_1_1 0
q_18_1_2 0
q_19_0_0 0
q_19_0_1 96
q_19_0_2 0
q_19_1_0 0
q_19_1_1 0
q_19_1_2 0
q_20_0_0 0
q_20_0_1 164
q_20_0_2 0
q_20_1_0 0
q_20_1_1 0
q_20_1_2 0
q_21_0_0 0
q_21_0_1 72
q_21_0_2 0
q_21_1_0 0
q_21_1_1 0
q_21_1_2 0
q_22_0_0 0
q_22_0_1 0
q_22_0_2 0
q_22_1_0 0
q_22_1_1 44
q_22_1_2 0
q_23_0_0 0
q_23_0_1 0
q_23_0_2 0
q_23_1_0 0
q_23_1_1 54
q_23_1_2 0
q_24_0_0 3.6038498492854264e-05
q_24_0_1 9.5999927922639429e+01
q_24_0_2 0
q_24_1_0 0
q_24_1_1 0
q_24_1_2 0
q_25_0_0 0
q_25_0_1 114
q_25_0_2 0
q_25_1_0 0
q_25_1_1 0
q_25_1_2 0
y_0_0_0 1
y_0_0_1 1
y_0_0_2 0
y_0_1_0 0
y_0_1_1 1
y_0_1_2 0
y_1_0_0 0
y_1_0_1 1
y_1_0_2 0
y_1_1_0 0
y_1_1_1 0
y_1_1_2 0
y_2_0_0 1
y_2_0_1 0
y_2_0_2 0
y_2_1_0 0
y_2_1_1 1
y_2_1_2 0
y_3_0_0 0
y_3_0_1 0
y_3_0_2 0
y_3_1_0 0
y_3_1_1 1
y_3_1_2 0
y_4_0_0 0
y_4_0_1 0
y_4_0_2 0
y_4_1_0 0
y_4_1_1 1
y_4_1_2 0
y_5_0_0 0
y_5_0_1 0
y_5_0_2 0
y_5_1_0 0
y_5_1_1 1
y_5_1_2 0
y_6_0_0 0
y_6_0_1 1
y_6_0_2 0
y_6_1_0 0
y_6_1_1 0
y_6_1_2 0
y_7_0_0 0
y_7_0_1 0
y_7_0_2 0
y_7_1_0 0
y_7_1_1 1
y_7_1_2 0
y_8_0_0 0
y_8_0_1 1
y_8_0_2 0
y_8_1_0 0
y_8_1_1 0
y_8_1_2 0
y_9_0_0 1
y_9_0_1 5.4614297934408913e-07
y_9_0_2 0
y_9_1_0 0
y_9_1_1 0
y_9_1_2 0
y_10_0_0 1
y_10_0_1 0
y_10_0_2 0
y_10_1_0 0
y_10_1_1 0
y_10_1_2 0
y_11_0_0 1
y_11_0_1 0
y_11_0_2 0
y_11_1_0 0
y_11_1_1 0
y_11_1_2 0
y_12_0_0 1
y_12_0_1 0
y_12_0_2 0
y_12_1_0 0
y_12_1_1 0
y_12_1_2 0
y_13_0_0 0
y_13_0_1 0
y_13_0_2 0
y_13_1_0 0
y_13_1_1 1
y_13_1_2 0
y_14_0_0 0
y_14_0_1 0
y_14_0_2 0
y_14_1_0 0
y_14_1_1 1
y_14_1_2 0
y_15_0_0 0
y_15_0_1 0
y_15_0_2 0
y_15_1_0 0
y_15_1_1 1
y_15_1_2 0
y_16_0_0 1
y_16_0_1 2.7445482317543942e-07
y_16_0_2 0
y_16_1_0 0
y_16_1_1 0
y_16_1_2 0
y_17_0_0 0
y_17_0_1 1
y_17_0_2 0
y_17_1_0 0
y_17_1_1 0
y_17_1_2 0
y_18_0_0 0
y_18_0_1 1
y_18_0_2 0
y_18_1_0 0
y_18_1_1 0
y_18_1_2 0
y_19_0_0 0
y_19_0_1 1
y_19_0_2 0
y_19_1_0 0
y_19_1_1 0
y_19_1_2 0
y_20_0_0 0
y_20_0_1 1
y_20_0_2 0
y_20_1_0 0
y_20_1_1 0
y_20_1_2 0
y_21_0_0 0
y_21_0_1 1.0000000000000004e+00
y_21_0_2 0
y_21_1_0 0
y_21_1_1 0
y_21_1_2 0
y_22_0_0 0
y_22_0_1 0
y_22_0_2 0
y_22_1_0 0
y_22_1_1 1
y_22_1_2 0
y_23_0_0 0
y_23_0_1 0
y_23_0_2 0
y_23_1_0 0
y_23_1_1 1
y_23_1_2 0
y_24_0_0 7.5080205193446380e-07
y_24_0_1 9.9999935194284584e-01
y_24_0_2 0
y_24_1_0 0
y_24_1_1 0
y_24_1_2 0
y_25_0_0 0
y_25_0_1 1
y_25_0_2 0
y_25_1_0 0
y_25_1_1 0
y_25_1_2 0
x_0_1_0_0 0
x_0_1_0_1 0
x_0_1_0_2 0
x_0_1_1_0 0
x_0_1_1_1 0
x_0_1_1_2 0
x_0_2_0_0 0
x_0_2_0_1 0
x_0_2_0_2 0
x_0_2_1_0 0
x_0_2_1_1 1
x_0_2_1_2 0
x_0_3_0_0 0
x_0_3_0_1 0
x_0_3_0_2 0
x_0_3_1_0 0
x_0_3_1_1 0
x_0_3_1_2 0
x_0_4_0_0 0
x_0_4_0_1 0
x_0_4_0_2 0
x_0_4_1_0 0
x_0_4_1_1 1
x_0_4_1_2 0
x_0_5_0_0 0
x_0_5_0_1 0
x_0_5_0_2 0
x_0_5_1_0 0
x_0_5_1_1 0
x_0_5_1_2 0
x_0_6_0_0 0
x_0_6_0_1 0
x_0_6_0_2 0
x_0_6_1_0 0
x_0_6_1_1 0
x_0_6_1_2 0
x_0_7_0_0 0
x_0_7_0_1 0
x_0_7_0_2 0
x_0_7_1_0 0
x_0_7_1_1 0
x_0_7_1_2 0
x_0_8_0_0 0
x_0_8_0_1 0
x_0_8_0_2 0
x_0_8_1_0 0
x_0_8_1_1 0
x_0_8_1_2 0
x_0_9_0_0 1
x_0_9_0_1 1.0952744221386848e-06
x_0_9_0_2 0
x_0_9_1_0 0
x_0_9_1_1 0
x_0_9_1_2 0
x_0_10_0_0 1
x_0_10_0_1 0
x_0_10_0_2 0
x_0_10_1_0 0
x_0_10_1_1 0
x_0_10_1_2 0
x_0_11_0_0 0
x_0_11_0_1 0
x_0_11_0_2 0
x_0_11_1_0 0
x_0_11_1_1 0
x_0_11_1_2 0
x_0_12_0_0 0
x_0_12_0_1 0
x_0_12_0_2 0
x_0_12_1_0 0
x_0_12_1_1 0
x_0_12_1_2 0
x_0_13_0_0 0
x_0_13_0_1 0
x_0_13_0_2 0
x_0_13_1_0 0
x_0_13_1_1 0
x_0_13_1_2 0
x_0_14_0_0 0
x_0_14_0_1 0
x_0_14_0_2 0
x_0_14_1_0 0
x_0_14_1_1 0
x_0_14_1_2 0
x_0_15_0_0 0
x_0_15_0_1 0
x_0_15_0_2 0
x_0_15_1_0 0
x_0_15_1_1 0
x_0_15_1_2 0
x_0_16_0_0 0
x_0_16_0_1 0
x_0_16_0_2 0
x_0_16_1_0 0
x_0_16_1_1 0
x_0_16_1_2 0
x_0_17_0_0 0
x_0_17_0_1 9.9999985513312473e-01
x_0_17_0_2 0
x_0_17_1_0 0
x_0_17_1_1 0
x_0_17_1_2 0
x_0_18_0_0 0
x_0_18_0_1 -2.0139919902975669e-07
x_0_18_0_2 0
x_0_18_1_0 0
x_0_18_1_1 0
x_0_18_1_2 0
x_0_19_0_0 0
x_0_19_0_1 0
x_0_19_0_2 0
x_0_19_1_0 0
x_0_19_1_1 0
x_0_19_1_2 0
x_0_20_0_0 0
x_0_20_0_1 0
x_0_20_0_2 0
x_0_20_1_0 0
x_0_20_1_1 0
x_0_20_1_2 0
x_0_21_0_0 0
x_0_21_0_1 0
x_0_21_0_2 0
x_0_21_1_0 0
x_0_21_1_1 0
x_0_21_1_2 0
x_0_22_0_0 0
x_0_22_0_1 0
x_0_22_0_2 0
x_0_22_1_0 0
x_0_22_1_1 0
x_0_22_1_2 0
x_0_23_0_0 0
x_0_23_0_1 0
x_0_23_0_2 0
x_0_23_1_0 0
x_0_23_1_1 0
x_0_23_1_2 0
x_0_24_0_0 0
x_0_24_0_1 9.9999925005134416e-01
x_0_24_0_2 0
x_0_24_1_0 0
x_0_24_1_1 0
x_0_24_1_2 0
x_0_25_0_0 0
x_0_25_0_1 0
x_0_25_0_2 0
x_0_25_1_0 0
x_0_25_1_1 0
x_0_25_1_2 0
x_1_2_0_0 0
x_1_2_0_1 0
x_1_2_0_2 0
x_1_2_1_0 0
x_1_2_1_1 0
x_1_2_1_2 0
x_1_3_0_0 0
x_1_3_0_1 0
x_1_3_0_2 0
x_1_3_1_0 0
x_1_3_1_1 0
x_1_3_1_2 0
x_1_4_0_0 0
x_1_4_0_1 0
x_1_4_0_2 0
x_1_4_1_0 0
x_1_4_1_1 0
x_1_4_1_2 0
x_1_5_0_0 0
x_1_5_0_1 0
x_1_5_0_2 0
x_1_5_1_0 0
x_1_5_1_1 0
x_1_5_1_2 0
x_1_6_0_0 0
x_1_6_0_1 1
x_1_6_0_2 0
x_1_6_1_0 0
x_1_6_1_1 0
x_1_6_1_2 0
x_1_7_0_0 0
x_1_7_0_1 0
x_1_7_0_2 0
x_1_7_1_0 0
x_1_7_1_1 0
x_1_7_1_2 0
x_1_8_0_0 0
x_1_8_0_1 1
x_1_8_0_2 0
x_1_8_1_0 0
x_1_8_1_1 0
x_1_8_1_2 0
x_1_9_0_0 0
x_1_9_0_1 0
x_1_9_0_2 0
x_1_9_1_0 0
x_1_9_1_1 0
x_1_9_1_2 0
x_1_10_0_0 0
x_1_10_0_1 0
x_1_10_0_2 0
x_1_10_1_0 0
x_1_10_1_1 0
x_1_10_1_2 0
x_1_11_0_0 0
x_1_11_0_1 0
x_1_11_0_2 0
x_1_11_1_0 0
x_1_11_1_1 0
x_1_11_1_2 0
x_1_12_0_0 0
x_1_12_0_1 0
x_1_12_0_2 0
x_1_12_1_0 0
x_1_12_1_1 0
x_1_12_1_2 0
x_1_13_0_0 0
x_1_13_0_1 0
x_1_13_0_2 0
x_1_13_1_0 0
x_1_13_1_1 0
x_1_13_1_2 0
x_1_14_0_0 0
x_1_14_0_1 0
x_1_14_0_2 0
x_1_14_1_0 0
x_1_14_1_1 0
x_1_14_1_2 0
x_1_15_0_0 0
x_1_15_0_1 0
x_1_15_0_2 0
x_1_15_1_0 0
x_1_15_1_1 0
x_1_15_1_2 0
x_1_16_0_0 0
x_1_16_0_1 0
x_1_16_0_2 0
x_1_16_1_0 0
x_1_16_1_1 0
x_1_16_1_2 0
x_1_17_0_0 0
x_1_17_0_1 0
x_1_17_0_2 0
x_1_17_1_0 0
x_1_17_1_1 0
x_1_17_1_2 0
x_1_18_0_0 0
x_1_18_0_1 0
x_1_18_0_2 0
x_1_18_1_0 0
x_1_18_1_1 0
x_1_18_1_2 0
x_1_19_0_0 0
x_1_19_0_1 0
x_1_19_0_2 0
x_1_19_1_0 0
x_1_19_1_1 0
x_1_19_1_2 0
x_1_20_0_0 0
x_1_20_0_1 0
x_1_20_0_2 0
x_1_20_1_0 0
x_1_20_1_1 0
x_1_20_1_2 0
x_1_21_0_0 0
x_1_21_0_1 0
x_1_21_0_2 0
x_1_21_1_0 0
x_1_21_1_1 0
x_1_21_1_2 0
x_1_22_0_0 0
x_1_22_0_1 0
x_1_22_0_2 0
x_1_22_1_0 0
x_1_22_1_1 0
x_1_22_1_2 0
x_1_23_0_0 0
x_1_23_0_1 0
x_1_23_0_2 0
x_1_23_1_0 0
x_1_23_1_1 0
x_1_23_1_2 0
x_1_24_0_0 0
x_1_24_0_1 0
x_1_24_0_2 0
x_1_24_1_0 0
x_1_24_1_1 0
x_1_24_1_2 0
x_1_25_0_0 0
x_1_25_0_1 0
x_1_25_0_2 0
x_1_25_1_0 0
x_1_25_1_1 0
x_1_25_1_2 0
x_2_3_0_0 0
x_2_3_0_1 0
x_2_3_0_2 0
x_2_3_1_0 0
x_2_3_1_1 0
x_2_3_1_2 0
x_2_4_0_0 0
x_2_4_0_1 0
x_2_4_0_2 0
x_2_4_1_0 0
x_2_4_1_1 0
x_2_4_1_2 0
x_2_5_0_0 0
x_2_5_0_1 0
x_2_5_0_2 0
x_2_5_1_0 0
x_2_5_1_1 0
x_2_5_1_2 0
x_2_6_0_0 0
x_2_6_0_1 0
x_2_6_0_2 0
x_2_6_1_0 0
x_2_6_1_1 0
x_2_6_1_2 0
x_2_7_0_0 0
x_2_7_0_1 0
x_2_7_0_2 0
x_2_7_1_0 0
x_2_7_1_1 1
x_2_7_1_2 0
x_2_8_0_0 0
x_2_8_0_1 0
x_2_8_0_2 0
x_2_8_1_0 0
x_2_8_1_1 0
x_2_8_1_2 0
x_2_9_0_0 0
x_2_9_0_1 0
x_2_9_0_2 0
x_2_9_1_0 0
x_2_9_1_1 0
x_2_9_1_2 0
x_2_10_0_0 0
x_2_10_0_1 0
x_2_10_0_2 0
x_2_10_1_0 0
x_2_10_1_1 0
x_2_10_1_2 0
x_2_11_0_0 1
x_2_11_0_1 0
x_2_11_0_2 0
x_2_11_1_0 0
x_2_11_1_1 0
x_2_11_1_2 0
x_2_12_0_0 1
x_2_12_0_1 0
x_2_12_0_2 0
x_2_12_1_0 0
x_2_12_1_1 0
x_2_12_1_2 0
x_2_13_0_0 0
x_2_13_0_1 0
x_2_13_0_2 0
x_2_13_1_0 0
x_2_13_1_1 0
x_2_13_1_2 0
x_2_14_0_0 0
x_2_14_0_1 0
x_2_14_0_2 0
x_2_14_1_0 0
x_2_14_1_1 0
x_2_14_1_2 0
x_2_15_0_0 0
x_2_15_0_1 0
x_2_15_0_2 0
x_2_15_1_0 0
x_2_15_1_1 0
x_2_15_1_2 0
x_2_16_0_0 0
x_2_16_0_1 0
x_2_16_0_2 0
x_2_16_1_0 0
x_2_16_1_1 0
x_2_16_1_2 0
x_2_17_0_0 0
x_2_17_0_1 0
x_2_17_0_2 0
x_2_17_1_0 0
x_2_17_1_1 0
x_2_17_1_2 0
x_2_18_0_0 0
x_2_18_0_1 0
x_2_18_0_2 0
x_2_18_1_0 0
x_2_18_1_1 0
x_2_18_1_2 0
x_2_19_0_0 0
x_2_19_0_1 0
x_2_19_0_2 0
x_2_19_1_0 0
x_2_19_1_1 0
x_2_19_1_2 0
x_2_20_0_0 0
x_2_20_0_1 0
x_2_20_0_2 0
x_2_20_1_0 0
x_2_20_1_1 0
x_2_20_1_2 0
x_2_21_0_0 0
x_2_21_0_1 0
x_2_21_0_2 0
x_2_21_1_0 0
x_2_21_1_1 0
x_2_21_1_2 0
x_2_22_0_0 0
x_2_22_0_1 0
x_2_22_0_2 0
x_2_22_1_0 0
x_2_22_1_1 0
x_2_22_1_2 0
x_2_23_0_0 0
x_2_23_0_1 0
x_2_23_0_2 0
x_2_23_1_0 0
x_2_23_1_1 0
x_2_23_1_2 0
x_2_24_0_0 0
x_2_24_0_1 0
x_2_24_0_2 0
x_2_24_1_0 0
x_2_24_1_1 0
x_2_24_1_2 0
x_2_25_0_0 0
x_2_25_0_1 0
x_2_25_0_2 0
x_2_25_1_0 0
x_2_25_1_1 0
x_2_25_1_2 0
x_3_4_0_0 0
x_3_4_0_1 0
x_3_4_0_2 0
x_3_4_1_0 0
x_3_4_1_1 0
x_3_4_1_2 0
x_3_5_0_0 0
x_3_5_0_1 0
x_3_5_0_2 0
x_3_5_1_0 0
x_3_5_1_1 1
x_3_5_1_2 0
x_3_6_0_0 0
x_3_6_0_1 0
x_3_6_0_2 0
x_3_6_1_0 0
x_3_6_1_1 0
x_3_6_1_2 0
x_3_7_0_0 0
x_3_7_0_1 0
x_3_7_0_2 0
x_3_7_1_0 0
x_3_7_1_1 1
x_3_7_1_2 0
x_3_8_0_0 0
x_3_8_0_1 0
x_3_8_0_2 0
x_3_8_1_0 0
x_3_8_1_1 0
x_3_8_1_2 0
x_3_9_0_0 0
x_3_9_0_1 0
x_3_9_0_2 0
x_3_9_1_0 0
x_3_9_1_1 0
x_3_9_1_2 0
x_3_10_0_0 0
x_3_10_0_1 0
x_3_10_0_2 0
x_3_10_1_0 0
x_3_10_1_1 0
x_3_10_1_2 0
x_3_11_0_0 0
x_3_11_0_1 0
x_3_11_0_2 0
x_3_11_1_0 0
x_3_11_1_1 0
x_3_11_1_2 0
x_3_12_0_0 0
x_3_12_0_1 0
x_3_12_0_2 0
x_3_12_1_0 0
x_3_12_1_1 0
x_3_12_1_2 0
x_3_13_0_0 0
x_3_13_0_1 0
x_3_13_0_2 0
x_3_13_1_0 0
x_3_13_1_1 0
x_3_13_1_2 0
x_3_14_0_0 0
x_3_14_0_1 0
x_3_14_0_2 0
x_3_14_1_0 0
x_3_14_1_1 0
x_3_14_1_2 0
x_3_15_0_0 0
x_3_15_0_1 0
x_3_15_0_2 0
x_3_15_1_0 0
x_3_15_1_1 0
x_3_15_1_2 0
x_3_16_0_0 0
x_3_16_0_1 0
x_3_16_0_2 0
x_3_16_1_0 0
x_3_16_1_1 0
x_3_16_1_2 0
x_3_17_0_0 0
x_3_17_0_1 0
x_3_17_0_2 0
x_3_17_1_0 0
x_3_17_1_1 0
x_3_17_1_2 0
x_3_18_0_0 0
x_3_18_0_1 0
x_3_18_0_2 0
x_3_18_1_0 0
x_3_18_1_1 0
x_3_18_1_2 0
x_3_19_0_0 0
x_3_19_0_1 0
x_3_19_0_2 0
x_3_19_1_0 0
x_3_19_1_1 0
x_3_19_1_2 0
x_3_20_0_0 0
x_3_20_0_1 0
x_3_20_0_2 0
x_3_20_1_0 0
x_3_20_1_1 0
x_3_20_1_2 0
x_3_21_0_0 0
x_3_21_0_1 0
x_3_21_0_2 0
x_3_21_1_0 0
x_3_21_1_1 0
x_3_21_1_2 0
x_3_22_0_0 0
x_3_22_0_1 0
x_3_22_0_2 0
x_3_22_1_0 0
x_3_22_1_1 0
x_3_22_1_2 0
x_3_23_0_0 0
x_3_23_0_1 0
x_3_23_0_2 0
x_3_23_1_0 0
x_3_23_1_1 0
x_3_23_1_2 0
x_3_24_0_0 0
x_3_24_0_1 0
x_3_24_0_2 0
x_3_24_1_0 0
x_3_24_1_1 0
x_3_24_1_2 0
x_3_25_0_0 0
x_3_25_0_1 0
x_3_25_0_2 0
x_3_25_1_0 0
x_3_25_1_1 0
x_3_25_1_2 0
x_4_5_0_0 0
x_4_5_0_1 0
x_4_5_0_2 0
x_4_5_1_0 0
x_4_5_1_1 0
x_4_5_1_2 0
x_4_6_0_0 0
x_4_6_0_1 0
x_4_6_0_2 0
x_4_6_1_0 0
x_4_6_1_1 0
x_4_6_1_2 0
x_4_7_0_0 0
x_4_7_0_1 0
x_4_7_0_2 0
x_4_7_1_0 0
x_4_7_1_1 0
x_4_7_1_2 0
x_4_8_0_0 0
x_4_8_0_1 0
x_4_8_0_2 0
x_4_8_1_0 0
x_4_8_1_1 0
x_4_8_1_2 0
x_4_9_0_0 0
x_4_9_0_1 0
x_4_9_0_2 0
x_4_9_1_0 0
x_4_9_1_1 0
x_4_9_1_2 0
x_4_10_0_0 0
x_4_10_0_1 0
x_4_10_0_2 0
x_4_10_1_0 0
x_4_10_1_1 0
x_4_10_1_2 0
x_4_11_0_0 0
x_4_11_0_1 0
x_4_11_0_2 0
x_4_11_1_0 0
x_4_11_1_1 0
x_4_11_1_2 0
x_4_12_0_0 0
x_4_12_0_1 0
x_4_12_0_2 0
x_4_12_1_0 0
x_4_12_1_1 0
x_4_12_1_2 0
x_4_13_0_0 0
x_4_13_0_1 0
x_4_13_0_2 0
x_4_13_1_0 0
x_4_13_1_1 0
x_4_13_1_2 0
x_4_14_0_0 0
x_4_14_0_1 0
x_4_14_0_2 0
x_4_14_1_0 0
x_4_14_1_1 0
x_4_14_1_2 0
x_4_15_0_0 0
x_4_15_0_1 0
x_4_15_0_2 0
x_4_15_1_0 0
x_4_15_1_1 1
x_4_15_1_2 0
x_4_16_0_0 0
x_4_16_0_1 0
x_4_16_0_2 0
x_4_16_1_0 0
x_4_16_1_1 0
x_4_16_1_2 0
x_4_17_0_0 0
x_4_17_0_1 0
x_4_17_0_2 0
x_4_17_1_0 0
x_4_17_1_1 0
x_4_17_1_2 0
x_4_18_0_0 0
x_4_18_0_1 0
x_4_18_0_2 0
x_4_18_1_0 0
x_4_18_1_1 0
x_4_18_1_2 0
x_4_19_0_0 0
x_4_19_0_1 0
x_4_19_0_2 0
x_4_19_1_0 0
x_4_19_1_1 0
x_4_19_1_2 0
x_4_20_0_0 0
x_4_20_0_1 0
x_4_20_0_2 0
x_4_20_1_0 0
x_4_20_1_1 0
x_4_20_1_2 0
x_4_21_0_0 0
x_4_21_0_1 0
x_4_21_0_2 0
x_4_21_1_0 0
x_4_21_1_1 0
x_4_21_1_2 0
x_4_22_0_0 0
x_4_22_0_1 0
x_4_22_0_2 0
x_4_22_1_0 0
x_4_22_1_1 0
x_4_22_1_2 0
x_4_23_0_0 0
x_4_23_0_1 0
x_4_23_0_2 0
x_4_23_1_0 0
x_4_23_1_1 0
x_4_23_1_2 0
x_4_24_0_0 0
x_4_24_0_1 0
x_4_24_0_2 0
x_4_24_1_0 0
x_4_24_1_1 0
x_4_24_1_2 0
x_4_25_0_0 0
x_4_25_0_1 0
x_4_25_0_2 0
x_4_25_1_0 0
x_4_25_1_1 0
x_4_25_1_2 0
x_5_6_0_0 0
x_5_6_0_1 0
x_5_6_0_2 0
x_5_6_1_0 0
x_5_6_1_1 0
x_5_6_1_2 0
x_5_7_0_0 0
x_5_7_0_1 0
x_5_7_0_2 0
x_5_7_1_0 0
x_5_7_1_1 0
x_5_7_1_2 0
x_5_8_0_0 0
x_5_8_0_1 0
x_5_8_0_2 0
x_5_8_1_0 0
x_5_8_1_1 0
x_5_8_1_2 0
x_5_9_0_0 0
x_5_9_0_1 0
x_5_9_0_2 0
x_5_9_1_0 0
x_5_9_1_1 0
x_5_9_1_2 0
x_5_10_0_0 0
x_5_10_0_1 0
x_5_10_0_2 0
x_5_10_1_0 0
x_5_10_1_1 0
x_5_10_1_2 0
x_5_11_0_0 0
x_5_11_0_1 0
x_5_11_0_2 0
x_5_11_1_0 0
x_5_11_1_1 0
x_5_11_1_2 0
x_5_12_0_0 0
x_5_12_0_1 0
x_5_12_0_2 0
x_5_12_1_0 0
x_5_12_1_1 0
x_5_12_1_2 0
x_5_13_0_0 0
x_5_13_0_1 0
x_5_13_0_2 0
x_5_13_1_0 0
x_5_13_1_1 0
x_5_13_1_2 0
x_5_14_0_0 0
x_5_14_0_1 0
x_5_14_0_2 0
x_5_14_1_0 0
x_5_14_1_1 1
x_5_14_1_2 0
x_5_15_0_0 0
x_5_15_0_1 0
x_5_15_0_2 0
x_5_15_1_0 0
x_5_15_1_1 0
x_5_15_1_2 0
x_5_16_0_0 0
x_5_16_0_1 0
x_5_16_0_2 0
x_5_16_1_0 0
x_5_16_1_1 0
x_5_16_1_2 0
x_5_17_0_0 0
x_5_17_0_1 0
x_5_17_0_2 0
x_5_17_1_0 0
x_5_17_1_1 0
x_5_17_1_2 0
x_5_18_0_0 0
x_5_18_0_1 0
x_5_18_0_2 0
x_5_18_1_0 0
x_5_18_1_1 0
x_5_18_1_2 0
x_5_19_0_0 0
x_5_19_0_1 0
x_5_19_0_2 0
x_5_19_1_0 0
x_5_19_1_1 0
x_5_19_1_2 0
x_5_20_0_0 0
x_5_20_0_1 0
x_5_20_0_2 0
x_5_20_1_0 0
x_5_20_1_1 0
x_5_20_1_2 0
x_5_21_0_0 0
x_5_21_0_1 0
x_5_21_0_2 0
x_5_21_1_0 0
x_5_21_1_1 0
x_5_21_1_2 0
x_5_22_0_0 0
x_5_22_0_1 0
x_5_22_0_2 0
x_5_22_1_0 0
x_5_22_1_1 0
x_5_22_1_2 0
x_5_23_0_0 0
x_5_23_0_1 0
x_5_23_0_2 0
x_5_23_1_0 0
x_5_23_1_1 0
x_5_23_1_2 0
x_5_24_0_0 0
x_5_24_0_1 0
x_5_24_0_2 0
x_5_24_1_0 0
x_5_24_1_1 0
x_5_24_1_2 0
x_5_25_0_0 0
x_5_25_0_1 0
x_5_25_0_2 0
x_5_25_1_0 0
x_5_25_1_1 0
x_5_25_1_2 0
x_6_7_0_0 0
x_6_7_0_1 0
x_6_7_0_2 0
x_6_7_1_0 0
x_6_7_1_1 0
x_6_7_1_2 0
x_6_8_0_0 0
x_6_8_0_1 0
x_6_8_0_2 0
x_6_8_1_0 0
x_6_8_1_1 0
x_6_8_1_2 0
x_6_9_0_0 0
x_6_9_0_1 0
x_6_9_0_2 0
x_6_9_1_0 0
x_6_9_1_1 0
x_6_9_1_2 0
x_6_10_0_0 0
x_6_10_0_1 0
x_6_10_0_2 0
x_6_10_1_0 0
x_6_10_1_1 0
x_6_10_1_2 0
x_6_11_0_0 0
x_6_11_0_1 0
x_6_11_0_2 0
x_6_11_1_0 0
x_6_11_1_1 0
x_6_11_1_2 0
x_6_12_0_0 0
x_6_12_0_1 0
x_6_12_0_2 0
x_6_12_1_0 0
x_6_12_1_1 0
x_6_12_1_2 0
x_6_13_0_0 0
x_6_13_0_1 0
x_6_13_0_2 0
x_6_13_1_0 0
x_6_13_1_1 0
x_6_13_1_2 0
x_6_14_0_0 0
x_6_14_0_1 0
x_6_14_0_2 0
x_6_14_1_0 0
x_6_14_1_1 0
x_6_14_1_2 0
x_6_15_0_0 0
x_6_15_0_1 0
x_6_15_0_2 0
x_6_15_1_0 0
x_6_15_1_1 0
x_6_15_1_2 0
x_6_16_0_0 0
x_6_16_0_1 0
x_6_16_0_2 0
x_6_16_1_0 0
x_6_16_1_1 0
x_6_16_1_2 0
x_6_17_0_0 0
x_6_17_0_1 0
x_6_17_0_2 0
x_6_17_1_0 0
x_6_17_1_1 0
x_6_17_1_2 0
x_6_18_0_0 0
x_6_18_0_1 0
x_6_18_0_2 0
x_6_18_1_0 0
x_6_18_1_1 0
x_6_18_1_2 0
x_6_19_0_0 0
x_6_19_0_1 0
x_6_19_0_2 0
x_6_19_1_0 0
x_6_19_1_1 0
x_6_19_1_2 0
x_6_20_0_0 0
x_6_20_0_1 1
x_6_20_0_2 0
x_6_20_1_0 0
x_6_20_1_1 0
x_6_20_1_2 0
x_6_21_0_0 0
x_6_21_0_1 0
x_6_21_0_2 0
x_6_21_1_0 0
x_6_21_1_1 0
x_6_21_1_2 0
x_6_22_0_0 0
x_6_22_0_1 0
x_6_22_0_2 0
x_6_22_1_0 0
x_6_22_1_1 0
x_6_22_1_2 0
x_6_23_0_0 0
x_6_23_0_1 0
x_6_23_0_2 0
x_6_23_1_0 0
x_6_23_1_1 0
x_6_23_1_2 0
x_6_24_0_0 0
x_6_24_0_1 0
x_6_24_0_2 0
x_6_24_1_0 0
x_6_24_1_1 0
x_6_24_1_2 0
x_6_25_0_0 0
x_6_25_0_1 0
x_6_25_0_2 0
x_6_25_1_0 0
x_6_25_1_1 0
x_6_25_1_2 0
x_7_8_0_0 0
x_7_8_0_1 0
x_7_8_0_2 0
x_7_8_1_0 0
x_7_8_1_1 0
x_7_8_1_2 0
x_7_9_0_0 0
x_7_9_0_1 0
x_7_9_0_2 0
x_7_9_1_0 0
x_7_9_1_1 0
x_7_9_1_2 0
x_7_10_0_0 0
x_7_10_0_1 0
x_7_10_0_2 0
x_7_10_1_0 0
x_7_10_1_1 0
x_7_10_1_2 0
x_7_11_0_0 0
x_7_11_0_1 0
x_7_11_0_2 0
x_7_11_1_0 0
x_7_11_1_1 0
x_7_11_1_2 0
x_7_12_0_0 0
x_7_12_0_1 0
x_7_12_0_2 0
x_7_12_1_0 0
x_7_12_1_1 0
x_7_12_1_2 0
x_7_13_0_0 0
x_7_13_0_1 0
x_7_13_0_2 0
x_7_13_1_0 0
x_7_13_1_1 0
x_7_13_1_2 0
x_7_14_0_0 0
x_7_14_0_1 0
x_7_14_0_2 0
x_7_14_1_0 0
x_7_14_1_1 0
x_7_14_1_2 0
x_7_15_0_0 0
x_7_15_0_1 0
x_7_15_0_2 0
x_7_15_1_0 0
x_7_15_1_1 0
x_7_15_1_2 0
x_7_16_0_0 0
x_7_16_0_1 0
x_7_16_0_2 0
x_7_16_1_0 0
x_7_16_1_1 0
x_7_16_1_2 0
x_7_17_0_0 0
x_7_17_0_1 0
x_7_17_0_2 0
x_7_17_1_0 0
x_7_17_1_1 0
x_7_17_1_2 0
x_7_18_0_0 0
x_7_18_0_1 0
x_7_18_0_2 0
x_7_18_1_0 0
x_7_18_1_1 0
x_7_18_1_2 0
x_7_19_0_0 0
x_7_19_0_1 0
x_7_19_0_2 0
x_7_19_1_0 0
x_7_19_1_1 0
x_7_19_1_2 0
x_7_20_0_0 0
x_7_20_0_1 0
x_7_20_0_2 0
x_7_20_1_0 0
x_7_20_1_1 0
x_7_20_1_2 0
x_7_21_0_0 0
x_7_21_0_1 0
x_7_21_0_2 0
x_7_21_1_0 0
x_7_21_1_1 0
x_7_21_1_2 0
x_7_22_0_0 0
x_7_22_0_1 0
x_7_22_0_2 0
x_7_22_1_0 0
x_7_22_1_1 0
x_7_22_1_2 0
x_7_23_0_0 0
x_7_23_0_1 0
x_7_23_0_2 0
x_7_23_1_0 0
x_7_23_1_1 0
x_7_23_1_2 0
x_7_24_0_0 0
x_7_24_0_1 0
x_7_24_0_2 0
x_7_24_1_0 0
x_7_24_1_1 0
x_7_24_1_2 0
x_7_25_0_0 0
x_7_25_0_1 0
x_7_25_0_2 0
x_7_25_1_0 0
x_7_25_1_1 0
x_7_25_1_2 0
x_8_9_0_0 0
x_8_9_0_1 0
x_8_9_0_2 0
x_8_9_1_0 0
x_8_9_1_1 0
x_8_9_1_2 0
x_8_10_0_0 0
x_8_10_0_1 0
x_8_10_0_2 0
x_8_10_1_0 0
x_8_10_1_1 0
x_8_10_1_2 0
x_8_11_0_0 0
x_8_11_0_1 0
x_8_11_0_2 0
x_8_11_1_0 0
x_8_11_1_1 0
x_8_11_1_2 0
x_8_12_0_0 0
x_8_12_0_1 0
x_8_12_0_2 0
x_8_12_1_0 0
x_8_12_1_1 0
x_8_12_1_2 0
x_8_13_0_0 0
x_8_13_0_1 0
x_8_13_0_2 0
x_8_13_1_0 0
x_8_13_1_1 0
x_8_13_1_2 0
x_8_14_0_0 0
x_8_14_0_1 0
x_8_14_0_2 0
x_8_14_1_0 0
x_8_14_1_1 0
x_8_14_1_2 0
x_8_15_0_0 0
x_8_15_0_1 0
x_8_15_0_2 0
x_8_15_1_0 0
x_8_15_1_1 0
x_8_15_1_2 0
x_8_16_0_0 0
x_8_16_0_1 0
x_8_16_0_2 0
x_8_16_1_0 0
x_8_16_1_1 0
x_8_16_1_2 0
x_8_17_0_0 0
x_8_17_0_1 0
x_8_17_0_2 0
x_8_17_1_0 0
x_8_17_1_1 0
x_8_17_1_2 0
x_8_18_0_0 0
x_8_18_0_1 1.0000001988991991e+00
x_8_18_0_2 0
x_8_18_1_0 0
x_8_18_1_1 0
x_8_18_1_2 0
x_8_19_0_0 0
x_8_19_0_1 0
x_8_19_0_2 0
x_8_19_1_0 0
x_8_19_1_1 0
x_8_19_1_2 0
x_8_20_0_0 0
x_8_20_0_1 0
x_8_20_0_2 0
x_8_20_1_0 0
x_8_20_1_1 0
x_8_20_1_2 0
x_8_21_0_0 0
x_8_21_0_1 0
x_8_21_0_2 0
x_8_21_1_0 0
x_8_21_1_1 0
x_8_21_1_2 0
x_8_22_0_0 0
x_8_22_0_1 0
x_8_22_0_2 0
x_8_22_1_0 0
x_8_22_1_1 0
x_8_22_1_2 0
x_8_23_0_0 0
x_8_23_0_1 0
x_8_23_0_2 0
x_8_23_1_0 0
x_8_23_1_1 0
x_8_23_1_2 0
x_8_24_0_0 0
x_8_24_0_1 0
x_8_24_0_2 0
x_8_24_1_0 0
x_8_24_1_1 0
x_8_24_1_2 0
x_8_25_0_0 0
x_8_25_0_1 0
x_8_25_0_2 0
x_8_25_1_0 0
x_8_25_1_1 0
x_8_25_1_2 0
x_9_10_0_0 0
x_9_10_0_1 0
x_9_10_0_2 0
x_9_10_1_0 0
x_9_10_1_1 0
x_9_10_1_2 0
x_9_11_0_0 0
x_9_11_0_1 0
x_9_11_0_2 0
x_9_11_1_0 0
x_9_11_1_1 0
x_9_11_1_2 0
x_9_12_0_0 0
x_9_12_0_1 0
x_9_12_0_2 0
x_9_12_1_0 0
x_9_12_1_1 0
x_9_12_1_2 0
x_9_13_0_0 0
x_9_13_0_1 0
x_9_13_0_2 0
x_9_13_1_0 0
x_9_13_1_1 0
x_9_13_1_2 0
x_9_14_0_0 0
x_9_14_0_1 0
x_9_14_0_2 0
x_9_14_1_0 0
x_9_14_1_1 0
x_9_14_1_2 0
x_9_15_0_0 0
x_9_15_0_1 0
x_9_15_0_2 0
x_9_15_1_0 0
x_9_15_1_1 0
x_9_15_1_2 0
x_9_16_0_0 9.9999924990276590e-01
x_9_16_0_1 0
x_9_16_0_2 0
x_9_16_1_0 0
x_9_16_1_1 0
x_9_16_1_2 0
x_9_17_0_0 0
x_9_17_0_1 0
x_9_17_0_2 0
x_9_17_1_0 0
x_9_17_1_1 0
x_9_17_1_2 0
x_9_18_0_0 0
x_9_18_0_1 0
x_9_18_0_2 0
x_9_18_1_0 0
x_9_18_1_1 0
x_9_18_1_2 0
x_9_19_0_0 0
x_9_19_0_1 0
x_9_19_0_2 0
x_9_19_1_0 0
x_9_19_1_1 0
x_9_19_1_2 0
x_9_20_0_0 0
x_9_20_0_1 0
x_9_20_0_2 0
x_9_20_1_0 0
x_9_20_1_1 0
x_9_20_1_2 0
x_9_21_0_0 0
x_9_21_0_1 0
x_9_21_0_2 0
x_9_21_1_0 0
x_9_21_1_1 0
x_9_21_1_2 0
x_9_22_0_0 0
x_9_22_0_1 0
x_9_22_0_2 0
x_9_22_1_0 0
x_9_22_1_1 0
x_9_22_1_2 0
x_9_23_0_0 0
x_9_23_0_1 0
x_9_23_0_2 0
x_9_23_1_0 0
x_9_23_1_1 0
x_9_23_1_2 0
x_9_24_0_0 7.4913159798112822e-07
x_9_24_0_1 0
x_9_24_0_2 0
x_9_24_1_0 0
x_9_24_1_1 0
x_9_24_1_2 0
x_9_25_0_0 0
x_9_25_0_1 0
x_9_25_0_2 0
x_9_25_1_0 0
x_9_25_1_1 0
x_9_25_1_2 0
x_10_11_0_0 0
x_10_11_0_1 0
x_10_11_0_2 0
x_10_11_1_0 0
x_10_11_1_1 0
x_10_11_1_2 0
x_10_12_0_0 1
x_10_12_0_1 0
x_10_12_0_2 0
x_10_12_1_0 0
x_10_12_1_1 0
x_10_12_1_2 0
x_10_13_0_0 0
x_10_13_0_1 0
x_10_13_0_2 0
x_10_13_1_0 0
x_10_13_1_1 0
x_10_13_1_2 0
x_10_14_0_0 0
x_10_14_0_1 0
x_10_14_0_2 0
x_10_14_1_0 0
x_10_14_1_1 0
x_10_14_1_2 0
x_10_15_0_0 0
x_10_15_0_1 0
x_10_15_0_2 0
x_10_15_1_0 0
x_10_15_1_1 0
x_10_15_1_2 0
x_10_16_0_0 0
x_10_16_0_1 0
x_10_16_0_2 0
x_10_16_1_0 0
x_10_16_1_1 0
x_10_16_1_2 0
x_10_17_0_0 0
x_10_17_0_1 0
x_10_17_0_2 0
x_10_17_1_0 0
x_10_17_1_1 0
x_10_17_1_2 0
x_10_18_0_0 0
x_10_18_0_1 0
x_10_18_0_2 0
x_10_18_1_0 0
x_10_18_1_1 0
x_10_18_1_2 0
x_10_19_0_0 0
x_10_19_0_1 0
x_10_19_0_2 0
x_10_19_1_0 0
x_10_19_1_1 0
x_10_19_1_2 0
x_10_20_0_0 0
x_10_20_0_1 0
x_10_20_0_2 0
x_10_20_1_0 0
x_10_20_1_1 0
x_10_20_1_2 0
x_10_21_0_0 0
x_10_21_0_1 0
x_10_21_0_2 0
x_10_21_1_0 0
x_10_21_1_1 0
x_10_21_1_2 0
x_10_22_0_0 0
x_10_22_0_1 0
x_10_22_0_2 0
x_10_22_1_0 0
x_10_22_1_1 0
x_10_22_1_2 0
x_10_23_0_0 0
x_10_23_0_1 0
x_10_23_0_2 0
x_10_23_1_0 0
x_10_23_1_1 0
x_10_23_1_2 0
x_10_24_0_0 0
x_10_24_0_1 0
x_10_24_0_2 0
x_10_24_1_0 0
x_10_24_1_1 0
x_10_24_1_2 0
x_10_25_0_0 0
x_10_25_0_1 0
x_10_25_0_2 0
x_10_25_1_0 0
x_10_25_1_1 0
x_10_25_1_2 0
x_11_12_0_0 0
x_11_12_0_1 0
x_11_12_0_2 0
x_11_12_1_0 0
x_11_12_1_1 0
x_11_12_1_2 0
x_11_13_0_0 0
x_11_13_0_1 0
x_11_13_0_2 0
x_11_13_1_0 0
x_11_13_1_1 0
x_11_13_1_2 0
x_11_14_0_0 0
x_11_14_0_1 0
x_11_14_0_2 0
x_11_14_1_0 0
x_11_14_1_1 0
x_11_14_1_2 0
x_11_15_0_0 0
x_11_15_0_1 0
x_11_15_0_2 0
x_11_15_1_0 0
x_11_15_1_1 0
x_11_15_1_2 0
x_11_16_0_0 1
x_11_16_0_1 0
x_11_16_0_2 0
x_11_16_1_0 0
x_11_16_1_1 0
x_11_16_1_2 0
x_11_17_0_0 0
x_11_17_0_1 0
x_11_17_0_2 0
x_11_17_1_0 0
x_11_17_1_1 0
x_11_17_1_2 0
x_11_18_0_0 0
x_11_18_0_1 0
x_11_18_0_2 0
x_11_18_1_0 0
x_11_18_1_1 0
x_11_18_1_2 0
x_11_19_0_0 0
x_11_19_0_1 0
x_11_19_0_2 0
x_11_19_1_0 0
x_11_19_1_1 0
x_11_19_1_2 0
x_11_20_0_0 0
x_11_20_0_1 0
x_11_20_0_2 0
x_11_20_1_0 0
x_11_20_1_1 0
x_11_20_1_2 0
x_11_21_0_0 0
x_11_21_0_1 0
x_11_21_0_2 0
x_11_21_1_0 0
x_11_21_1_1 0
x_11_21_1_2 0
x_11_22_0_0 0
x_11_22_0_1 0
x_11_22_0_2 0
x_11_22_1_0 0
x_11_22_1_1 0
x_11_22_1_2 0
x_11_23_0_0 0
x_11_23_0_1 0
x_11_23_0_2 0
x_11_23_1_0 0
x_11_23_1_1 0
x_11_23_1_2 0
x_11_24_0_0 0
x_11_24_0_1 0
x_11_24_0_2 0
x_11_24_1_0 0
x_11_24_1_1 0
x_11_24_1_2 0
x_11_25_0_0 0
x_11_25_0_1 0
x_11_25_0_2 0
x_11_25_1_0 0
x_11_25_1_1 0
x_11_25_1_2 0
x_12_13_0_0 0
x_12_13_0_1 0
x_12_13_0_2 0
x_12_13_1_0 0
x_12_13_1_1 0
x_12_13_1_2 0
x_12_14_0_0 0
x_12_14_0_1 0
x_12_14_0_2 0
x_12_14_1_0 0
x_12_14_1_1 0
x_12_14_1_2 0
x_12_15_0_0 0
x_12_15_0_1 0
x_12_15_0_2 0
x_12_15_1_0 0
x_12_15_1_1 0
x_12_15_1_2 0
x_12_16_0_0 0
x_12_16_0_1 0
x_12_16_0_2 0
x_12_16_1_0 0
x_12_16_1_1 0
x_12_16_1_2 0
x_12_17_0_0 0
x_12_17_0_1 0
x_12_17_0_2 0
x_12_17_1_0 0
x_12_17_1_1 0
x_12_17_1_2 0
x_12_18_0_0 0
x_12_18_0_1 0
x_12_18_0_2 0
x_12_18_1_0 0
x_12_18_1_1 0
x_12_18_1_2 0
x_12_19_0_0 0
x_12_19_0_1 0
x_12_19_0_2 0
x_12_19_1_0 0
x_12_19_1_1 0
x_12_19_1_2 0
x_12_20_0_0 0
x_12_20_0_1 0
x_12_20_0_2 0
x_12_20_1_0 0
x_12_20_1_1 0
x_12_20_1_2 0
x_12_21_0_0 0
x_12_21_0_1 0
x_12_21_0_2 0
x_12_21_1_0 0
x_12_21_1_1 0
x_12_21_1_2 0
x_12_22_0_0 0
x_12_22_0_1 0
x_12_22_0_2 0
x_12_22_1_0 0
x_12_22_1_1 0
x_12_22_1_2 0
x_12_23_0_0 0
x_12_23_0_1 0
x_12_23_0_2 0
x_12_23_1_0 0
x_12_23_1_1 0
x_12_23_1_2 0
x_12_24_0_0 0
x_12_24_0_1 0
x_12_24_0_2 0
x_12_24_1_0 0
x_12_24_1_1 0
x_12_24_1_2 0
x_12_25_0_0 0
x_12_25_0_1 0
x_12_25_0_2 0
x_12_25_1_0 0
x_12_25_1_1 0
x_12_25_1_2 0
x_13_14_0_0 0
x_13_14_0_1 0
x_13_14_0_2 0
x_13_14_1_0 0
x_13_14_1_1 0
x_13_14_1_2 0
x_13_15_0_0 0
x_13_15_0_1 0
x_13_15_0_2 0
x_13_15_1_0 0
x_13_15_1_1 1
x_13_15_1_2 0
x_13_16_0_0 0
x_13_16_0_1 0
x_13_16_0_2 0
x_13_16_1_0 0
x_13_16_1_1 0
x_13_16_1_2 0
x_13_17_0_0 0
x_13_17_0_1 0
x_13_17_0_2 0
x_13_17_1_0 0
x_13_17_1_1 0
x_13_17_1_2 0
x_13_18_0_0 0
x_13_18_0_1 0
x_13_18_0_2 0
x_13_18_1_0 0
x_13_18_1_1 0
x_13_18_1_2 0
x_13_19_0_0 0
x_13_19_0_1 0
x_13_19_0_2 0
x_13_19_1_0 0
x_13_19_1_1 0
x_13_19_1_2 0
x_13_20_0_0 0
x_13_20_0_1 0
x_13_20_0_2 0
x_13_20_1_0 0
x_13_20_1_1 0
x_13_20_1_2 0
x_13_21_0_0 0
x_13_21_0_1 0
x_13_21_0_2 0
x_13_21_1_0 0
x_13_21_1_1 0
x_13_21_1_2 0
x_13_22_0_0 0
x_13_22_0_1 0
x_13_22_0_2 0
x_13_22_1_0 0
x_13_22_1_1 1
x_13_22_1_2 0
x_13_23_0_0 0
x_13_23_0_1 0
x_13_23_0_2 0
x_13_23_1_0 0
x_13_23_1_1 0
x_13_23_1_2 0
x_13_24_0_0 0
x_13_24_0_1 0
x_13_24_0_2 0
x_13_24_1_0 0
x_13_24_1_1 0
x_13_24_1_2 0
x_13_25_0_0 0
x_13_25_0_1 0
x_13_25_0_2 0
x_13_25_1_0 0
x_13_25_1_1 0
x_13_25_1_2 0
x_14_15_0_0 0
x_14_15_0_1 0
x_14_15_0_2 0
x_14_15_1_0 0
x_14_15_1_1 0
x_14_15_1_2 0
x_14_16_0_0 0
x_14_16_0_1 0
x_14_16_0_2 0
x_14_16_1_0 0
x_14_16_1_1 0
x_14_16_1_2 0
x_14_17_0_0 0
x_14_17_0_1 0
x_14_17_0_2 0
x_14_17_1_0 0
x_14_17_1_1 0
x_14_17_1_2 0
x_14_18_0_0 0
x_14_18_0_1 0
x_14_18_0_2 0
x_14_18_1_0 0
x_14_18_1_1 0
x_14_18_1_2 0
x_14_19_0_0 0
x_14_19_0_1 0
x_14_19_0_2 0
x_14_19_1_0 0
x_14_19_1_1 0
x_14_19_1_2 0
x_14_20_0_0 0
x_14_20_0_1 0
x_14_20_0_2 0
x_14_20_1_0 0
x_14_20_1_1 0
x_14_20_1_2 0
x_14_21_0_0 0
x_14_21_0_1 0
x_14_21_0_2 0
x_14_21_1_0 0
x_14_21_1_1 0
x_14_21_1_2 0
x_14_22_0_0 0
x_14_22_0_1 0
x_14_22_0_2 0
x_14_22_1_0 0
x_14_22_1_1 0
x_14_22_1_2 0
x_14_23_0_0 0
x_14_23_0_1 0
x_14_23_0_2 0
x_14_23_1_0 0
x_14_23_1_1 1
x_14_23_1_2 0
x_14_24_0_0 0
x_14_24_0_1 0
x_14_24_0_2 0
x_14_24_1_0 0
x_14_24_1_1 0
x_14_24_1_2 0
x_14_25_0_0 0
x_14_25_0_1 0
x_14_25_0_2 0
x_14_25_1_0 0
x_14_25_1_1 0
x_14_25_1_2 0
x_15_16_0_0 0
x_15_16_0_1 0
x_15_16_0_2 0
x_15_16_1_0 0
x_15_16_1_1 0
x_15_16_1_2 0
x_15_17_0_0 0
x_15_17_0_1 0
x_15_17_0_2 0
x_15_17_1_0 0
x_15_17_1_1 0
x_15_17_1_2 0
x_15_18_0_0 0
x_15_18_0_1 0
x_15_18_0_2 0
x_15_18_1_0 0
x_15_18_1_1 0
x_15_18_1_2 0
x_15_19_0_0 0
x_15_19_0_1 0
x_15_19_0_2 0
x_15_19_1_0 0
x_15_19_1_1 0
x_15_19_1_2 0
x_15_20_0_0 0
x_15_20_0_1 0
x_15_20_0_2 0
x_15_20_1_0 0
x_15_20_1_1 0
x_15_20_1_2 0
x_15_21_0_0 0
x_15_21_0_1 0
x_15_21_0_2 0
x_15_21_1_0 0
x_15_21_1_1 0
x_15_21_1_2 0
x_15_22_0_0 0
x_15_22_0_1 0
x_15_22_0_2 0
x_15_22_1_0 0
x_15_22_1_1 0
x_15_22_1_2 0
x_15_23_0_0 0
x_15_23_0_1 0
x_15_23_0_2 0
x_15_23_1_0 0
x_15_23_1_1 0
x_15_23_1_2 0
x_15_24_0_0 0
x_15_24_0_1 0
x_15_24_0_2 0
x_15_24_1_0 0
x_15_24_1_1 0
x_15_24_1_2 0
x_15_25_0_0 0
x_15_25_0_1 0
x_15_25_0_2 0
x_15_25_1_0 0
x_15_25_1_1 0
x_15_25_1_2 0
x_16_17_0_0 0
x_16_17_0_1 0
x_16_17_0_2 0
x_16_17_1_0 0
x_16_17_1_1 0
x_16_17_1_2 0
x_16_18_0_0 0
x_16_18_0_1 0
x_16_18_0_2 0
x_16_18_1_0 0
x_16_18_1_1 0
x_16_18_1_2 0
x_16_19_0_0 0
x_16_19_0_1 0
x_16_19_0_2 0
x_16_19_1_0 0
x_16_19_1_1 0
x_16_19_1_2 0
x_16_20_0_0 0
x_16_20_0_1 0
x_16_20_0_2 0
x_16_20_1_0 0
x_16_20_1_1 0
x_16_20_1_2 0
x_16_21_0_0 0
x_16_21_0_1 5.4730964723905725e-07
x_16_21_0_2 0
x_16_21_1_0 0
x_16_21_1_1 0
x_16_21_1_2 0
x_16_22_0_0 0
x_16_22_0_1 0
x_16_22_0_2 0
x_16_22_1_0 0
x_16_22_1_1 0
x_16_22_1_2 0
x_16_23_0_0 0
x_16_23_0_1 0
x_16_23_0_2 0
x_16_23_1_0 0
x_16_23_1_1 0
x_16_23_1_2 0
x_16_24_0_0 7.5080583922113275e-07
x_16_24_0_1 0
x_16_24_0_2 0
x_16_24_1_0 0
x_16_24_1_1 0
x_16_24_1_2 0
x_16_25_0_0 0
x_16_25_0_1 0
x_16_25_0_2 0
x_16_25_1_0 0
x_16_25_1_1 0
x_16_25_1_2 0
x_17_18_0_0 0
x_17_18_0_1 1
x_17_18_0_2 0
x_17_18_1_0 0
x_17_18_1_1 0
x_17_18_1_2 0
x_17_19_0_0 0
x_17_19_0_1 0
x_17_19_0_2 0
x_17_19_1_0 0
x_17_19_1_1 0
x_17_19_1_2 0
x_17_20_0_0 0
x_17_20_0_1 0
x_17_20_0_2 0
x_17_20_1_0 0
x_17_20_1_1 0
x_17_20_1_2 0
x_17_21_0_0 0
x_17_21_0_1 0
x_17_21_0_2 0
x_17_21_1_0 0
x_17_21_1_1 0
x_17_21_1_2 0
x_17_22_0_0 0
x_17_22_0_1 0
x_17_22_0_2 0
x_17_22_1_0 0
x_17_22_1_1 0
x_17_22_1_2 0
x_17_23_0_0 0
x_17_23_0_1 0
x_17_23_0_2 0
x_17_23_1_0 0
x_17_23_1_1 0
x_17_23_1_2 0
x_17_24_0_0 0
x_17_24_0_1 0
x_17_24_0_2 0
x_17_24_1_0 0
x_17_24_1_1 0
x_17_24_1_2 0
x_17_25_0_0 0
x_17_25_0_1 0
x_17_25_0_2 0
x_17_25_1_0 0
x_17_25_1_1 0
x_17_25_1_2 0
x_18_19_0_0 0
x_18_19_0_1 0
x_18_19_0_2 0
x_18_19_1_0 0
x_18_19_1_1 0
x_18_19_1_2 0
x_18_20_0_0 0
x_18_20_0_1 0
x_18_20_0_2 0
x_18_20_1_0 0
x_18_20_1_1 0
x_18_20_1_2 0
x_18_21_0_0 0
x_18_21_0_1 0
x_18_21_0_2 0
x_18_21_1_0 0
x_18_21_1_1 0
x_18_21_1_2 0
x_18_22_0_0 0
x_18_22_0_1 0
x_18_22_0_2 0
x_18_22_1_0 0
x_18_22_1_1 0
x_18_22_1_2 0
x_18_23_0_0 0
x_18_23_0_1 0
x_18_23_0_2 0
x_18_23_1_0 0
x_18_23_1_1 0
x_18_23_1_2 0
x_18_24_0_0 0
x_18_24_0_1 0
x_18_24_0_2 0
x_18_24_1_0 0
x_18_24_1_1 0
x_18_24_1_2 0
x_18_25_0_0 0
x_18_25_0_1 0
x_18_25_0_2 0
x_18_25_1_0 0
x_18_25_1_1 0
x_18_25_1_2 0
x_19_20_0_0 0
x_19_20_0_1 1
x_19_20_0_2 0
x_19_20_1_0 0
x_19_20_1_1 0
x_19_20_1_2 0
x_19_21_0_0 0
x_19_21_0_1 0
x_19_21_0_2 0
x_19_21_1_0 0
x_19_21_1_1 0
x_19_21_1_2 0
x_19_22_0_0 0
x_19_22_0_1 0
x_19_22_0_2 0
x_19_22_1_0 0
x_19_22_1_1 0
x_19_22_1_2 0
x_19_23_0_0 0
x_19_23_0_1 0
x_19_23_0_2 0
x_19_23_1_0 0
x_19_23_1_1 0
x_19_23_1_2 0
x_19_24_0_0 0
x_19_24_0_1 0
x_19_24_0_2 0
x_19_24_1_0 0
x_19_24_1_1 0
x_19_24_1_2 0
x_19_25_0_0 0
x_19_25_0_1 1
x_19_25_0_2 0
x_19_25_1_0 0
x_19_25_1_1 0
x_19_25_1_2 0
x_20_21_0_0 0
x_20_21_0_1 0
x_20_21_0_2 0
x_20_21_1_0 0
x_20_21_1_1 0
x_20_21_1_2 0
x_20_22_0_0 0
x_20_22_0_1 0
x_20_22_0_2 0
x_20_22_1_0 0
x_20_22_1_1 0
x_20_22_1_2 0
x_20_23_0_0 0
x_20_23_0_1 0
x_20_23_0_2 0
x_20_23_1_0 0
x_20_23_1_1 0
x_20_23_1_2 0
x_20_24_0_0 0
x_20_24_0_1 0
x_20_24_0_2 0
x_20_24_1_0 0
x_20_24_1_1 0
x_20_24_1_2 0
x_20_25_0_0 0
x_20_25_0_1 0
x_20_25_0_2 0
x_20_25_1_0 0
x_20_25_1_1 0
x_20_25_1_2 0
x_21_22_0_0 0
x_21_22_0_1 0
x_21_22_0_2 0
x_21_22_1_0 0
x_21_22_1_1 0
x_21_22_1_2 0
x_21_23_0_0 0
x_21_23_0_1 0
x_21_23_0_2 0
x_21_23_1_0 0
x_21_23_1_1 0
x_21_23_1_2 0
x_21_24_0_0 0
x_21_24_0_1 0.999999451023687
x_21_24_0_2 0
x_21_24_1_0 0
x_21_24_1_1 0
x_21_24_1_2 0
x_21_25_0_0 0
x_21_25_0_1 1
x_21_25_0_2 0
x_21_25_1_0 0
x_21_25_1_1 0
x_21_25_1_2 0
x_22_23_0_0 0
x_22_23_0_1 0
x_22_23_0_2 0
x_22_23_1_0 0
x_22_23_1_1 1
x_22_23_1_2 0
x_22_24_0_0 0
x_22_24_0_1 0
x_22_24_0_2 0
x_22_24_1_0 0
x_22_24_1_1 0
x_22_24_1_2 0
x_22_25_0_0 0
x_22_25_0_1 0
x_22_25_0_2 0
x_22_25_1_0 0
x_22_25_1_1 0
x_22_25_1_2 0
x_23_24_0_0 0
x_23_24_0_1 0
x_23_24_0_2 0
x_23_24_1_0 0
x_23_24_1_1 0
x_23_24_1_2 0
x_23_25_0_0 0
x_23_25_0_1 0
x_23_25_0_2 0
x_23_25_1_0 0
x_23_25_1_1 0
x_23_25_1_2 0
x_24_25_0_0 0
x_24_25_0_1 0
x_24_25_0_2 0
x_24_25_1_0 0
x_24_25_1_1 0
x_24_25_1_2 0
